Mack/Bortfeldt(2008)
Bin-Packing-Problem
BP-RG/SBSBPP/SSSCSP
Testcase-ID	10
Problem-ID	91
no_item_types	406
no_items	1368
CONTAINER_DATA (l,w,h)	432	79	1
ITEMS_DATA:
Type	x	y	z	no_items
1	59	47	1	5
2	56	49	1	4
3	55	47	1	3
4	56	46	1	3
5	52	49	1	6
6	57	44	1	5
7	50	50	1	2
8	59	42	1	4
9	58	42	1	5
10	49	49	1	3
11	49	48	1	2
12	59	39	1	4
13	57	39	1	1
14	54	41	1	1
15	48	46	1	2
16	50	44	1	4
17	52	42	1	5
18	49	44	1	2
19	57	37	1	5
20	47	44	1	4
21	59	35	1	2
22	60	34	1	3
23	51	40	1	3
24	55	37	1	5
25	56	36	1	3
26	53	38	1	4
27	51	39	1	5
28	47	42	1	4
29	48	41	1	4
30	48	40	1	3
31	53	36	1	5
32	47	40	1	3
33	50	37	1	4
34	46	40	1	2
35	55	33	1	2
36	49	37	1	1
37	45	40	1	2
38	50	36	1	2
39	47	38	1	4
40	49	36	1	5
41	50	35	1	4
42	53	33	1	2
43	46	38	1	3
44	56	31	1	3
45	44	39	1	3
46	45	38	1	2
47	47	36	1	2
48	42	40	1	4
49	44	38	1	6
50	52	32	1	2
51	42	39	1	3
52	51	32	1	7
53	48	34	1	5
54	58	28	1	3
55	45	36	1	4
56	46	35	1	1
57	53	30	1	5
58	48	33	1	3
59	44	36	1	5
60	51	31	1	3
61	56	28	1	3
62	58	27	1	3
63	40	39	1	3
64	41	38	1	3
65	45	34	1	3
66	46	33	1	8
67	54	28	1	1
68	42	36	1	6
69	58	26	1	4
70	43	35	1	6
71	48	31	1	2
72	53	28	1	2
73	39	38	1	3
74	57	26	1	4
75	39	38	1	2
76	46	32	1	4
77	47	31	1	2
78	44	33	1	2
79	45	32	1	3
80	41	35	1	5
81	46	31	1	4
82	49	29	1	4
83	47	30	1	5
84	38	37	1	3
85	39	36	1	3
86	54	26	1	3
87	39	36	1	5
88	48	29	1	1
89	58	24	1	2
90	42	33	1	1
91	46	30	1	5
92	37	37	1	2
93	41	33	1	2
94	48	28	1	5
95	58	23	1	9
96	38	35	1	3
97	55	24	1	2
98	44	30	1	1
99	55	24	1	3
100	47	28	1	4
101	41	32	1	1
102	50	26	1	4
103	36	36	1	2
104	43	30	1	4
105	56	23	1	4
106	58	22	1	2
107	49	26	1	5
108	53	24	1	5
109	47	27	1	1
110	45	28	1	2
111	37	34	1	3
112	39	32	1	3
113	52	24	1	5
114	46	27	1	3
115	40	31	1	2
116	59	21	1	3
117	56	22	1	2
118	35	35	1	3
119	51	24	1	4
120	36	34	1	6
121	47	26	1	6
122	42	29	1	1
123	45	27	1	3
124	39	31	1	3
125	35	34	1	5
126	37	32	1	5
127	36	32	1	2
128	48	24	1	2
129	41	28	1	2
130	37	31	1	6
131	38	30	1	2
132	39	29	1	4
133	49	23	1	4
134	51	22	1	4
135	34	33	1	5
136	35	32	1	2
137	40	28	1	2
138	36	31	1	1
139	37	30	1	4
140	41	27	1	5
141	58	19	1	1
142	38	29	1	3
143	33	33	1	1
144	35	31	1	4
145	45	24	1	4
146	54	20	1	3
147	38	28	1	5
148	48	22	1	6
149	42	25	1	4
150	36	29	1	2
151	40	26	1	3
152	37	28	1	4
153	47	22	1	3
154	57	18	1	3
155	38	27	1	3
156	41	25	1	4
157	44	23	1	4
158	46	22	1	1
159	42	24	1	3
160	36	28	1	5
161	59	17	1	3
162	40	25	1	3
163	43	23	1	4
164	34	29	1	3
165	35	28	1	3
166	36	27	1	3
167	46	21	1	2
168	37	26	1	4
169	40	24	1	2
170	38	25	1	3
171	43	22	1	3
172	45	21	1	1
173	59	16	1	4
174	41	23	1	4
175	39	24	1	4
176	49	19	1	3
177	31	30	1	1
178	44	21	1	4
179	54	17	1	3
180	48	19	1	4
181	38	24	1	4
182	35	26	1	4
183	43	21	1	4
184	41	22	1	3
185	45	20	1	7
186	60	15	1	6
187	30	30	1	3
188	36	25	1	4
189	30	30	1	2
190	31	29	1	3
191	32	28	1	3
192	47	19	1	1
193	33	27	1	2
194	52	17	1	3
195	42	21	1	3
196	40	22	1	3
197	38	23	1	2
198	32	27	1	3
199	43	20	1	3
200	39	22	1	1
201	33	26	1	3
202	37	23	1	4
203	34	25	1	2
204	47	18	1	1
205	42	20	1	3
206	30	28	1	5
207	40	21	1	5
208	38	22	1	7
209	32	26	1	2
210	33	25	1	2
211	39	21	1	4
212	43	19	1	5
213	58	14	1	2
214	30	27	1	3
215	31	26	1	5
216	35	23	1	1
217	40	20	1	4
218	32	25	1	4
219	47	17	1	4
220	42	19	1	8
221	36	22	1	3
222	33	24	1	5
223	49	16	1	5
224	29	27	1	2
225	34	23	1	3
226	39	20	1	1
227	37	21	1	5
228	32	24	1	5
229	48	16	1	4
230	32	24	1	2
231	51	15	1	5
232	38	20	1	3
233	36	21	1	2
234	29	26	1	3
235	31	24	1	5
236	37	20	1	3
237	41	18	1	3
238	46	16	1	4
239	49	15	1	3
240	52	14	1	1
241	29	25	1	2
242	36	20	1	1
243	30	24	1	5
244	45	16	1	1
245	59	12	1	3
246	47	15	1	3
247	32	22	1	3
248	27	26	1	4
249	39	18	1	5
250	35	20	1	3
251	28	25	1	1
252	41	17	1	2
253	30	23	1	1
254	43	16	1	4
255	38	18	1	4
256	34	20	1	2
257	40	17	1	4
258	34	20	1	3
259	42	16	1	4
260	48	14	1	6
261	37	18	1	3
262	39	17	1	5
263	55	12	1	4
264	44	15	1	3
265	41	16	1	6
266	26	25	1	4
267	27	24	1	7
268	36	18	1	7
269	43	15	1	2
270	28	23	1	2
271	46	14	1	1
272	29	22	1	3
273	35	18	1	2
274	30	21	1	4
275	45	14	1	3
276	42	15	1	1
277	37	17	1	2
278	57	11	1	5
279	33	19	1	3
280	48	13	1	3
281	26	24	1	3
282	31	20	1	2
283	28	22	1	4
284	56	11	1	3
285	28	22	1	7
286	36	17	1	3
287	51	12	1	2
288	47	13	1	3
289	30	20	1	3
290	26	23	1	4
291	35	17	1	2
292	27	22	1	6
293	54	11	1	3
294	27	22	1	4
295	33	18	1	1
296	37	16	1	6
297	28	21	1	3
298	39	15	1	2
299	29	20	1	3
300	34	17	1	4
301	32	18	1	2
302	26	22	1	2
303	44	13	1	3
304	26	22	1	3
305	38	15	1	5
306	33	17	1	2
307	35	16	1	1
308	28	20	1	1
309	40	14	1	2
310	43	13	1	5
311	24	23	1	4
312	29	19	1	6
313	39	14	1	2
314	32	17	1	5
315	34	16	1	4
316	32	17	1	3
317	36	15	1	4
318	45	12	1	2
319	25	21	1	5
320	29	18	1	2
321	40	13	1	3
322	27	19	1	3
323	34	15	1	2
324	39	13	1	6
325	42	12	1	4
326	28	18	1	3
327	25	20	1	2
328	31	16	1	3
329	33	15	1	2
330	45	11	1	8
331	38	13	1	4
332	26	19	1	3
333	29	17	1	3
334	37	13	1	8
335	32	15	1	3
336	28	17	1	3
337	39	12	1	5
338	26	18	1	2
339	29	16	1	3
340	30	15	1	6
341	32	14	1	3
342	28	16	1	3
343	37	12	1	5
344	22	20	1	4
345	23	19	1	6
346	31	14	1	2
347	27	16	1	5
348	24	18	1	6
349	27	16	1	1
350	28	15	1	2
351	22	19	1	4
352	26	16	1	2
353	32	13	1	5
354	23	18	1	5
355	29	14	1	1
356	27	15	1	4
357	25	16	1	4
358	23	17	1	3
359	39	10	1	3
360	20	19	1	3
361	27	14	1	2
362	25	15	1	4
363	22	17	1	4
364	23	16	1	3
365	19	19	1	3
366	24	15	1	3
367	20	18	1	3
368	21	17	1	3
369	24	14	1	2
370	21	16	1	3
371	22	15	1	3
372	25	13	1	3
373	19	17	1	6
374	20	16	1	3
375	21	15	1	1
376	24	13	1	4
377	22	14	1	5
378	28	11	1	3
379	18	17	1	3
380	17	17	1	4
381	18	16	1	2
382	22	13	1	3
383	23	12	1	2
384	17	16	1	8
385	18	15	1	4
386	19	14	1	2
387	20	13	1	3
388	26	10	1	3
389	17	15	1	1
390	18	14	1	3
391	19	13	1	3
392	16	15	1	4
393	24	10	1	4
394	16	15	1	4
395	15	15	1	5
396	16	14	1	1
397	17	13	1	5
398	18	12	1	4
399	15	14	1	3
400	21	10	1	4
401	14	14	1	1
402	15	13	1	3
403	16	11	1	5
404	13	13	1	8
405	13	12	1	1
406	12	10	1	2
